ouro.lp
Maximize
  155 Anel1 + 173 Anel2 + 121 Anel3 + 165 Anel4
Subject To
  R1: 210 Anel1 + 210 Anel2 + 300 Anel3 + 300 Anel4 <= 1200
  R2: 18 Anel1 + 20 Anel3 <= 73
  R3: 18 Anel2 + 20 Anel4 <= 30
Integers
  Anel1 Anel2 Anel3 Anel4
End
