ouro.sol
# Objective value = 793
Anel1 4
Anel2 1
Anel3 0
Anel4 0
